/* Cplex Data generated on 2017-12-16 */

k = 12;

b = 6;

AtomicConstraints = {
	 <6, 1>,
	 <6, 2>,
	 <11, 12>,
	 <9, 12>,
	 }; 

SoftAtomicConstraints = {
	 <2, 1>,
	 <3, 2>,
	 <4, 3>,
	 <5, 4>,
	 <12, 5>,
	 <11, 6>,
	 <10, 7>,
	 <7, 8>,
	 <8, 9>,
	 <9, 11>,
	 }; 

DisjunctiveConstraints = {
	 <2, 3, 2, 1>,
	 <3, 4, 3, 2>,
	 <4, 5, 4, 3>,
	 <6, 1, 6, 7>,
	 <7, 10, 7, 8>,
	 <9, 8, 9, 11>,
	 <8, 7, 8, 9>,
	 }; 

DirectSuccessors = {
	1,
	2,
	3,
	4,
	5,
	6,
	7,
	10,
	12,
	11,
	9,
	8,
	 }; 

